80
(acrolein)(water)24
O    0.9811722    1.8276019    0.4257696
C    0.7425522    0.8443480   -0.2520274
H    1.4291002    0.5495159   -1.0747064
C   -0.4275408   -0.0204721   -0.0638324
H   -1.1211298    0.2440349    0.7359406
C   -0.6149408   -1.0827751   -0.8523604
H    0.0939492   -1.3242551   -1.6461394
H   -1.4747308   -1.7411820   -0.7358794
O   -3.5076958   -2.8691480   -0.0304044
H   -3.8076958   -3.8191481   -0.0104044
H   -3.9076958   -2.3691481    0.7395956
O   -2.9576958   -0.1891480    2.4185956
H   -3.7176958   -0.7991481    2.6685956
H   -2.1476958   -0.7391481    2.2185956
O   -0.7576958   -1.9191480    2.8985956
H    0.0123042   -1.2891481    2.9785956
H   -1.0876958   -2.1591481    3.7985956
O    1.6423042    0.0008519    4.4285956
H    2.3123042    0.3608519    3.7785956
H    2.0823042   -0.6291480    5.0585956
O   -1.4076958   -4.2191481    1.6885956
H   -0.9776958   -3.3691481    1.9885956
H   -2.3176958   -4.0191481    1.3095956
O    3.1023042   -0.9691481    1.0895956
H    3.4023042   -1.7991481    1.5595956
H    2.4923042   -0.4491481    1.6895956
O    3.1923042    1.3708519    2.6185956
H    4.1623042    1.2408519    2.4385956
H    2.9223042    2.3008519    2.3385956
O   -2.9876958    0.3908519    5.0185956
H   -3.8976958    0.7908520    5.1285956
H   -2.8476958    0.1308519    4.0685956
O    5.1423042    0.9308519    0.3895956
H    5.4923042    1.0708519    1.3195956
H    4.4523042    0.2108519    0.3995956
O   -3.6576958   -1.9591481   -2.5204044
H   -3.7976958   -2.4091480   -1.6304044
H   -2.8176958   -2.3091481   -2.9404044
O    2.1023042   -0.4491481   -3.7504044
H    1.3523042   -0.4291481   -4.4104044
H    2.8823042    0.0408519   -4.1204044
O   -1.0676958   -2.8691480   -3.4104044
H   -0.5176958   -3.3391481   -2.7204044
H   -1.5076958   -3.5391480   -4.0004044
O    3.0823042    2.6508520   -1.6404044
H    2.6323042    2.5208520   -0.7604044
H    3.6123042    1.8308519   -1.8604044
O   -0.5676958    1.7408519    4.2885956
H    0.2623042    1.1908519    4.3585956
H   -1.3376958    1.2508519    4.6985956
O   -0.7476958    5.4008519   -1.0904044
H   -0.1476958    5.2708519   -0.3004044
H   -0.9976958    4.5108520   -1.4704044
O    0.4523042   -4.3691480   -1.6704044
H   -0.0376958   -4.7791480   -0.9004044
H    1.3323042   -4.8191481   -1.7904044
O    3.3823042   -4.4891481   -1.8204044
H    3.7423042   -4.7391481   -0.9104044
H    3.1923042   -3.5091481   -1.8404044
O    0.0123042   -1.0491481   -5.3004044
H   -0.7176958   -0.3691480   -5.3804044
H   -0.2376958   -1.7391480   -4.6204044
O    2.9423042   -1.9491481   -1.4804044
H    2.7323042   -1.5691481   -0.5804044
H    2.5523042   -1.3591481   -2.1904044
O    1.4223042    3.1608519   -3.9504044
H    2.1723042    2.9608520   -4.5804044
H    1.7423042    3.0908520   -3.0104044
O   -4.8176958    1.8508520    1.1595956
H   -4.0476958    1.2408519    1.3395956
H   -4.7076958    2.2508519    0.2495956
O   -4.6876958    0.3608519   -2.4804044
H   -4.3276958   -0.5491480   -2.2804044
H   -4.9076958    0.4208519   -3.4504044
O    1.2823042    5.2808520    0.9195956
H    1.9023042    5.3508519    1.6995956
H    0.4023042    4.9208520    1.2295956
O   -1.2076958    3.7108520    2.2185956
H   -2.2076958    3.7408519    2.2485956
H   -0.8776958    3.0008519    2.8385956
